width = 28;

n_circuits = 22;

circuit_x = array1d(1..22, [3, 3, 3, 3, 3, 3, 3, 3, 3, 3, 3, 3, 3, 4, 4, 4, 4, 4,
    4, 5, 5, 5]);

circuit_y = array1d(1..22, [3, 4, 5, 6, 7, 8, 9, 10, 11, 16, 17, 21, 23, 3, 4, 5,
    8, 13, 23, 6, 9, 13]);

opt_height = 28;

max_y = 23;

